Normalized Data/p10_110_tsplib0_normalized_split0.vrp
NAME:p10_110_tsplib0_NORMALIZED_split
BEST_KNOWN: 0
COMMENT: 0
DIMENSION: 549
CAPACITY: 100
EDGE_WEIGHT_FORMAT: FUNCTION
EDGE_WEIGHT_TYPE: EXACT_2D
NODE_COORD_SECTION
1 0.00000 0.00000
2 -13 -13
3 -13 -13
4 -13 -13
5 -13 -13
6 1 -9
7 1 -9
8 1 -9
9 1 -9
10 -14 10
11 -14 10
12 -14 10
13 10 0
14 10 0
15 20 -15
16 20 -15
17 20 -15
18 20 -15
19 20 -15
20 -2 -1
21 -2 -1
22 -2 -1
23 -2 -1
24 15 15
25 20 10
26 -9 24
27 -9 24
28 5 31
29 20 30
30 20 30
31 20 30
32 20 30
33 0 16
34 0 16
35 0 16
36 0 16
37 27 0
38 27 22
39 27 -11
40 27 -11
41 27 -11
42 -14 1
43 -14 1
44 -14 1
45 -2 9
46 -26 21
47 27 13
48 27 13
49 27 13
50 27 13
51 31 -21
52 9 -22
53 -9 -22
54 -9 -22
55 -24 -7
56 -24 -7
57 -28 8
58 -28 8
59 -18 29
60 -18 29
61 -18 29
62 -18 29
63 6 11
64 6 11
65 6 11
66 20 -1
67 0 -19
68 0 -19
69 0 -19
70 17 -9
71 17 -9
72 8 -9
73 -4 41
74 -4 41
75 -4 41
76 -4 41
77 -13 18
78 -13 18
79 -13 18
80 -13 18
81 -9 -6
82 -9 -6
83 -9 -6
84 -9 -6
85 15 5
86 15 5
87 20 15
88 20 15
89 20 15
90 20 15
91 19 -25
92 25 -20
93 25 -20
94 25 -20
95 25 -20
96 12 31
97 -5 25
98 -5 15
99 -5 15
100 -5 15
101 -5 15
102 -23 -18
103 -23 -18
104 -20 -21
105 -19 -16
106 -19 -16
107 -14 13
108 -14 13
109 -14 13
110 15 -5
111 15 -5
112 15 -5
113 15 -5
114 16 7
115 16 7
116 16 7
117 15 -20
118 13 -14
119 13 -14
120 13 -14
121 13 -14
122 -23 3
123 -23 3
124 -23 3
125 -23 3
126 2 17
127 2 17
128 14 14
129 14 14
130 17 29
131 17 29
132 -15 -9
133 5 -5
134 5 -5
135 5 -5
136 5 -5
137 5 -5
138 -14 12
139 -14 12
140 -14 12
141 -18 28
142 -18 28
143 -18 28
144 -4 27
145 -4 27
146 -4 27
147 17 -2
148 17 -2
149 17 -2
150 16 -14
151 16 -14
152 16 -14
153 16 -14
154 7 6
155 7 6
156 7 6
157 7 6
158 -4 -3
159 -4 -3
160 -4 -3
161 -4 -3
162 -30 -10
163 -30 -10
164 -30 -10
165 -23 7
166 -23 7
167 -23 7
168 1 -19
169 1 -19
170 1 -19
171 17 6
172 17 6
173 17 6
174 17 6
175 -8 -12
176 -18 -2
177 -18 -2
178 -18 -2
179 -18 -2
180 -22 -22
181 22 23
182 22 23
183 22 23
184 22 23
185 22 23
186 27 7
187 27 7
188 27 7
189 27 7
190 7 22
191 7 22
192 7 22
193 7 22
194 7 22
195 -19 22
196 -19 22
197 -19 22
198 -19 22
199 -19 22
200 -27 17
201 -27 17
202 -27 17
203 -27 17
204 -28 3
205 -28 3
206 -28 3
207 -28 3
208 -28 3
209 -8 33
210 -5 13
211 -5 13
212 -5 13
213 8 32
214 8 32
215 23 13
216 23 13
217 23 13
218 23 -8
219 23 -8
220 2 34
221 2 34
222 2 34
223 2 34
224 3 11
225 3 11
226 11 -25
227 11 -25
228 11 -25
229 26 -2
230 26 -2
231 26 -2
232 27 28
233 27 28
234 28 34
235 28 34
236 28 34
237 28 34
238 28 34
239 -3 -13
240 -3 -13
241 -3 -13
242 -3 -13
243 10 0
244 10 0
245 10 0
246 10 0
247 10 0
248 24 -20
249 24 -20
250 24 -20
251 24 -20
252 -30 -29
253 -30 -29
254 -30 -29
255 -30 -29
256 -25 -18
257 -25 -18
258 -14 -25
259 -14 -25
260 -14 -25
261 -14 -25
262 -30 29
263 -30 29
264 -5 -20
265 -5 -20
266 4 -25
267 4 -25
268 4 -25
269 4 -25
270 4 -25
271 -3 4
272 -3 4
273 -3 4
274 -10 -3
275 -10 -3
276 -10 -3
277 -10 -3
278 -10 20
279 -10 20
280 -10 20
281 13 -7
282 13 -7
283 13 -7
284 13 -7
285 21 2
286 21 2
287 21 2
288 6 14
289 0 -18
290 0 -18
291 0 -18
292 20 10
293 20 10
294 20 10
295 20 10
296 20 -15
297 20 -15
298 20 -15
299 -20 -5
300 -20 -5
301 -20 -5
302 -20 -5
303 -20 -5
304 -10 -5
305 -10 -5
306 -10 -5
307 -10 -5
308 -15 15
309 -15 15
310 -15 15
311 -25 8
312 20 25
313 20 25
314 -5 25
315 -5 25
316 -5 25
317 -15 30
318 -15 30
319 -15 30
320 -15 30
321 -15 30
322 15 0
323 15 0
324 15 0
325 15 0
326 15 0
327 -5 -10
328 -5 -10
329 -20 -25
330 -5 -30
331 -5 -30
332 -5 -30
333 -25 -15
334 -25 -15
335 -25 -15
336 -30 -5
337 -30 -5
338 -30 -5
339 -30 -5
340 -15 5
341 -15 5
342 -15 5
343 -15 5
344 -20 25
345 -20 25
346 -20 25
347 -20 25
348 10 30
349 10 30
350 10 30
351 10 -15
352 10 -15
353 10 -15
354 10 -15
355 10 -15
356 10 -25
357 10 -25
358 10 -25
359 10 -25
360 20 -30
361 30 0
362 30 -15
363 30 -15
364 30 -15
365 30 -15
366 10 -5
367 10 -5
368 0 5
369 6 2
370 6 2
371 6 2
372 6 2
373 6 2
374 29 7
375 5 25
376 5 25
377 5 25
378 -4 17
379 0 34
380 0 34
381 18 17
382 18 17
383 30 20
384 30 20
385 30 20
386 28 30
387 28 30
388 28 30
389 -33 25
390 -33 25
391 -33 25
392 -33 25
393 -15 -15
394 -15 -15
395 -30 -30
396 -30 -30
397 25 -23
398 25 -23
399 25 -23
400 5 -10
401 5 -10
402 5 -10
403 7 -28
404 7 -28
405 7 -28
406 7 -28
407 7 -28
408 -11 -23
409 -11 -23
410 -12 -32
411 -12 -32
412 -24 -21
413 -24 -21
414 -29 3
415 -29 3
416 -33 13
417 -33 13
418 -27 21
419 -27 21
420 -27 21
421 -22 17
422 -22 17
423 -22 17
424 -22 17
425 -22 17
426 -29 33
427 -29 33
428 12 12
429 12 12
430 14 23
431 14 23
432 14 23
433 14 23
434 -8 8
435 2 -4
436 22 -6
437 22 -6
438 22 -6
439 22 -6
440 22 -6
441 28 -12
442 28 -12
443 28 -12
444 28 -12
445 18 -23
446 -3 -23
447 1 -9
448 1 -9
449 1 -9
450 -14 -11
451 -14 -11
452 -18 -1
453 -18 -1
454 -23 -11
455 -11 23
456 -8 34
457 -8 34
458 -20 42
459 27 42
460 27 42
461 14 38
462 32 -30
463 32 -30
464 32 -30
465 21 4
466 21 4
467 21 4
468 21 4
469 21 4
470 2 12
471 2 12
472 2 12
473 2 21
474 22 33
475 12 -19
476 12 -19
477 12 -19
478 9 -18
479 11 -22
480 11 -22
481 14 -24
482 14 -24
483 14 7
484 14 7
485 18 8
486 18 8
487 18 8
488 18 8
489 26 17
490 26 17
491 22 13
492 21 2
493 20 19
494 20 19
495 20 19
496 20 19
497 -20 12
498 -20 12
499 -21 2
500 -21 2
501 -21 2
502 -24 -4
503 -24 -4
504 -19 -13
505 -19 -13
506 -19 -13
507 -31 -17
508 -31 -17
509 -31 -17
510 -7 -17
511 -7 -17
512 -7 -17
513 -9 17
514 -9 17
515 -9 17
516 -9 17
517 -9 0
518 -9 0
519 -4 32
520 -20 -16
521 -20 -16
522 -20 -16
523 -20 -16
524 -13 -13
525 -17 -11
526 -17 -11
527 -17 -11
528 -17 -11
529 -17 -11
530 -9 -8
531 -9 -8
532 -9 -8
533 -9 -8
534 -9 -8
535 -10 -11
536 -10 -11
537 -13 -8
538 -10 -14
539 -10 -14
540 -16 -14
541 -16 -14
542 -16 -14
543 -16 -14
544 -15 -9
545 -15 -9
546 -15 -9
547 -17 -17
548 -17 -17
549 -17 -17
DEMAND_SECTION
1 0
2 5
3 1
4 1
5 1
6 1
7 1
8 1
9 1
10 1
11 1
12 1
13 5
14 1
15 5
16 1
17 1
18 1
19 1
20 5
21 1
22 1
23 1
24 5
25 1
26 1
27 1
28 1
29 5
30 1
31 1
32 1
33 1
34 1
35 1
36 1
37 5
38 5
39 5
40 1
41 1
42 1
43 1
44 1
45 1
46 5
47 5
48 1
49 1
50 1
51 5
52 1
53 5
54 1
55 5
56 1
57 5
58 1
59 5
60 1
61 1
62 1
63 5
64 1
65 1
66 1
67 5
68 1
69 1
70 1
71 1
72 1
73 5
74 1
75 1
76 1
77 5
78 1
79 1
80 1
81 5
82 1
83 1
84 1
85 1
86 1
87 5
88 1
89 1
90 1
91 5
92 5
93 1
94 1
95 1
96 5
97 5
98 5
99 1
100 1
101 1
102 1
103 1
104 1
105 5
106 1
107 5
108 1
109 1
110 5
111 1
112 1
113 1
114 1
115 1
116 1
117 5
118 1
119 1
120 1
121 1
122 5
123 1
124 1
125 1
126 5
127 1
128 5
129 1
130 5
131 1
132 1
133 5
134 1
135 1
136 1
137 1
138 5
139 1
140 1
141 5
142 1
143 1
144 1
145 1
146 1
147 5
148 1
149 1
150 1
151 1
152 1
153 1
154 1
155 1
156 1
157 1
158 5
159 1
160 1
161 1
162 1
163 1
164 1
165 1
166 1
167 1
168 1
169 1
170 1
171 1
172 1
173 1
174 1
175 5
176 5
177 1
178 1
179 1
180 1
181 5
182 1
183 1
184 1
185 1
186 5
187 1
188 1
189 1
190 5
191 1
192 1
193 1
194 1
195 5
196 1
197 1
198 1
199 1
200 5
201 1
202 1
203 1
204 5
205 1
206 1
207 1
208 1
209 1
210 1
211 1
212 1
213 5
214 1
215 5
216 1
217 1
218 5
219 1
220 5
221 1
222 1
223 1
224 5
225 1
226 1
227 1
228 1
229 5
230 1
231 1
232 5
233 1
234 5
235 1
236 1
237 1
238 1
239 5
240 1
241 1
242 1
243 5
244 1
245 1
246 1
247 1
248 5
249 1
250 1
251 1
252 5
253 1
254 1
255 1
256 1
257 1
258 5
259 1
260 1
261 1
262 5
263 1
264 1
265 1
266 5
267 1
268 1
269 1
270 1
271 5
272 1
273 1
274 5
275 1
276 1
277 1
278 5
279 1
280 1
281 1
282 1
283 1
284 1
285 5
286 1
287 1
288 1
289 5
290 1
291 1
292 5
293 1
294 1
295 1
296 5
297 1
298 1
299 5
300 1
301 1
302 1
303 1
304 1
305 1
306 1
307 1
308 1
309 1
310 1
311 1
312 5
313 1
314 1
315 1
316 1
317 5
318 1
319 1
320 1
321 1
322 5
323 1
324 1
325 1
326 1
327 5
328 1
329 1
330 1
331 1
332 1
333 5
334 1
335 1
336 1
337 1
338 1
339 1
340 1
341 1
342 1
343 1
344 5
345 1
346 1
347 1
348 5
349 1
350 1
351 5
352 1
353 1
354 1
355 1
356 1
357 1
358 1
359 1
360 5
361 1
362 1
363 1
364 1
365 1
366 5
367 1
368 5
369 5
370 1
371 1
372 1
373 1
374 5
375 5
376 1
377 1
378 5
379 5
380 1
381 5
382 1
383 5
384 1
385 1
386 5
387 1
388 1
389 5
390 1
391 1
392 1
393 5
394 1
395 5
396 1
397 1
398 1
399 1
400 1
401 1
402 1
403 5
404 1
405 1
406 1
407 1
408 5
409 1
410 5
411 1
412 5
413 1
414 1
415 1
416 5
417 1
418 5
419 1
420 1
421 5
422 1
423 1
424 1
425 1
426 1
427 1
428 5
429 1
430 1
431 1
432 1
433 1
434 5
435 1
436 5
437 1
438 1
439 1
440 1
441 1
442 1
443 1
444 1
445 5
446 1
447 5
448 1
449 1
450 1
451 1
452 1
453 1
454 5
455 1
456 1
457 1
458 1
459 1
460 1
461 1
462 5
463 1
464 1
465 5
466 1
467 1
468 1
469 1
470 1
471 1
472 1
473 1
474 1
475 5
476 1
477 1
478 5
479 5
480 1
481 1
482 1
483 5
484 1
485 1
486 1
487 1
488 1
489 5
490 1
491 5
492 5
493 5
494 1
495 1
496 1
497 5
498 1
499 1
500 1
501 1
502 5
503 1
504 1
505 1
506 1
507 1
508 1
509 1
510 5
511 1
512 1
513 5
514 1
515 1
516 1
517 1
518 1
519 5
520 1
521 1
522 1
523 1
524 5
525 5
526 1
527 1
528 1
529 1
530 5
531 1
532 1
533 1
534 1
535 1
536 1
537 1
538 5
539 1
540 5
541 1
542 1
543 1
544 5
545 1
546 1
547 1
548 1
549 1
DEPOT_SECTION
1
-1
EOF