Normalized Data/p10_110_tsplib0_normalized_split0.sol
548 -11 10 9 496 497 423 422 424 421 420 45 419 418 417 391 389 390 388 262 261 425 426 457 73 74 75 72 455 456 208 518 379 378 219 222 221 220 27 212 213 375 374 376 472 126 125 -19 20 21 22 160 159 157 158 274 276 273 275 303 305 306 304 81 80 83 82 536 543 545 544 131 450 449 524 526 525 528 527 503 504 505 453 55 54 502 501 300 302 299 298 301 178 176 175 177 451 452 41 42 43 -62 64 63 287 193 192 191 190 189 347 349 348 95 460 459 458 236 234 233 237 235 386 387 385 232 231 473 30 31 29 28 129 130 312 311 431 429 432 430 23 127 128 428 427 153 154 155 156 -133 366 365 110 111 109 112 147 146 148 65 230 228 229 36 360 373 185 188 187 186 468 466 467 464 465 284 491 285 286 325 322 323 324 321 246 244 245 243 13 12 242 368 370 -134 135 132 136 71 119 120 118 117 150 151 149 152 18 295 16 15 14 297 17 296 249 250 247 248 92 93 94 91 398 397 396 462 461 463 50 362 361 364 363 440 442 441 443 38 40 39 218 217 439 437 436 438 435 69 70 283 280 282 281 -223 224 471 469 470 35 32 34 33 143 145 144 96 313 314 315 26 25 454 319 316 317 318 320 61 59 58 60 140 141 142 345 343 344 346 196 197 194 198 195 202 200 201 199 416 415 57 56 310 166 164 165 341 340 339 342 -270 271 272 433 138 139 137 106 108 107 307 309 308 76 79 77 78 277 278 279 512 514 515 513 377 100 99 97 98 210 211 209 44 367 -289 288 290 68 67 66 167 168 169 266 269 267 265 268 402 405 404 406 403 357 356 355 358 227 225 226 481 480 359 90 444 116 476 475 474 479 478 51 477 350 353 351 354 352 401 399 400 434 -326 327 174 537 538 4 3 2 1 523 393 392 52 53 408 407 260 257 258 259 410 409 329 330 331 445 263 264 510 511 509 239 241 240 238 5 8 7 6 446 448 447 -369 371 372 85 84 171 173 172 170 484 486 485 487 293 292 24 291 294 490 214 215 216 46 49 48 47 489 488 384 382 383 37 183 182 180 184 181 493 494 495 492 380 381 87 89 86 88 114 113 115 482 483 -517 516 498 500 499 123 121 122 124 203 206 207 205 204 413 414 337 338 335 336 161 163 162 507 506 508 253 254 251 252 395 394 328 103 179 411 412 101 102 255 256 332 333 334 522 521 520 519 104 105 546 548 547 542 540 541 539 535 534 529 531 533 532 530 0 





OBJ=
1064.519
BEST_KNOWN=
0.000